unsat
(error "line 3000 column 17: model is not available")
(error "line 3001 column 17: model is not available")
(error "line 3002 column 18: model is not available")
(error "line 3003 column 18: model is not available")
(error "line 3004 column 18: model is not available")
(error "line 3005 column 18: model is not available")
(error "line 3006 column 18: model is not available")
(error "line 3007 column 18: model is not available")
(error "line 3008 column 18: model is not available")
(error "line 3009 column 18: model is not available")
(error "line 3010 column 18: model is not available")
(error "line 3011 column 18: model is not available")
(error "line 3012 column 17: model is not available")
(error "line 3013 column 18: model is not available")
(error "line 3014 column 18: model is not available")
(error "line 3015 column 18: model is not available")
(error "line 3016 column 18: model is not available")
(error "line 3017 column 18: model is not available")
(error "line 3018 column 18: model is not available")
(error "line 3019 column 18: model is not available")
(error "line 3020 column 18: model is not available")
(error "line 3021 column 18: model is not available")
(error "line 3022 column 18: model is not available")
(error "line 3023 column 17: model is not available")
(error "line 3024 column 18: model is not available")
(error "line 3025 column 18: model is not available")
(error "line 3026 column 18: model is not available")
(error "line 3027 column 18: model is not available")
(error "line 3028 column 18: model is not available")
(error "line 3029 column 18: model is not available")
(error "line 3030 column 18: model is not available")
(error "line 3031 column 18: model is not available")
(error "line 3032 column 18: model is not available")
(error "line 3033 column 18: model is not available")
(error "line 3034 column 17: model is not available")
(error "line 3035 column 18: model is not available")
(error "line 3036 column 18: model is not available")
(error "line 3037 column 18: model is not available")
(error "line 3038 column 18: model is not available")
(error "line 3039 column 18: model is not available")
(error "line 3040 column 18: model is not available")
(error "line 3041 column 18: model is not available")
(error "line 3042 column 18: model is not available")
(error "line 3043 column 18: model is not available")
(error "line 3044 column 18: model is not available")
(error "line 3045 column 17: model is not available")
(error "line 3046 column 18: model is not available")
(error "line 3047 column 18: model is not available")
(error "line 3048 column 18: model is not available")
(error "line 3049 column 18: model is not available")
(error "line 3050 column 18: model is not available")
(error "line 3051 column 18: model is not available")
(error "line 3052 column 17: model is not available")
(error "line 3053 column 17: model is not available")
(error "line 3054 column 17: model is not available")
(error "line 3055 column 17: model is not available")
(error "line 3056 column 38: model is not available")
(error "line 3057 column 45: model is not available")
(error "line 3058 column 38: model is not available")
(error "line 3059 column 45: model is not available")
(error "line 3060 column 46: model is not available")
(error "line 3061 column 53: model is not available")
(error "line 3062 column 40: model is not available")
(error "line 3063 column 47: model is not available")
(error "line 3064 column 38: model is not available")
(error "line 3065 column 45: model is not available")
(error "line 3066 column 38: model is not available")
(error "line 3067 column 45: model is not available")
(error "line 3068 column 41: model is not available")
(error "line 3069 column 48: model is not available")
(error "line 3070 column 42: model is not available")
(error "line 3071 column 42: model is not available")
(error "line 3072 column 49: model is not available")
(error "line 3073 column 42: model is not available")
(error "line 3074 column 49: model is not available")
(error "line 3075 column 42: model is not available")
(error "line 3076 column 42: model is not available")
(error "line 3077 column 49: model is not available")
(error "line 3078 column 41: model is not available")
(error "line 3079 column 48: model is not available")
(error "line 3080 column 41: model is not available")
(error "line 3081 column 48: model is not available")
(error "line 3082 column 41: model is not available")
(error "line 3083 column 41: model is not available")
(error "line 3084 column 48: model is not available")
(error "line 3085 column 41: model is not available")
(error "line 3086 column 48: model is not available")
(error "line 3087 column 41: model is not available")
(error "line 3088 column 41: model is not available")
(error "line 3089 column 48: model is not available")
(error "line 3090 column 41: model is not available")
(error "line 3091 column 48: model is not available")
(error "line 3092 column 37: model is not available")
(error "line 3093 column 44: model is not available")
(error "line 3094 column 42: model is not available")
(error "line 3095 column 42: model is not available")
(error "line 3096 column 42: model is not available")
(error "line 3097 column 42: model is not available")
(error "line 3098 column 42: model is not available")
(error "line 3099 column 42: model is not available")
(error "line 3100 column 38: model is not available")
(error "line 3101 column 38: model is not available")
(error "line 3102 column 38: model is not available")
(error "line 3103 column 38: model is not available")
(error "line 3104 column 38: model is not available")
(error "line 3105 column 38: model is not available")
(error "line 3106 column 38: model is not available")
(error "line 3107 column 38: model is not available")
(error "line 3108 column 38: model is not available")
(error "line 3109 column 38: model is not available")
(error "line 3110 column 38: model is not available")
(error "line 3111 column 41: model is not available")
(error "line 3112 column 48: model is not available")
(error "line 3113 column 42: model is not available")
(error "line 3114 column 49: model is not available")
(error "line 3115 column 42: model is not available")
(error "line 3116 column 49: model is not available")
(error "line 3117 column 41: model is not available")
(error "line 3118 column 48: model is not available")
(error "line 3119 column 41: model is not available")
(error "line 3120 column 48: model is not available")
(error "line 3121 column 41: model is not available")
(error "line 3122 column 48: model is not available")
(error "line 3123 column 41: model is not available")
(error "line 3124 column 48: model is not available")
(error "line 3125 column 41: model is not available")
(error "line 3126 column 48: model is not available")
(error "line 3127 column 41: model is not available")
(error "line 3128 column 48: model is not available")
(error "line 3129 column 41: model is not available")
(error "line 3130 column 48: model is not available")
(error "line 3131 column 41: model is not available")
(error "line 3132 column 48: model is not available")
(error "line 3133 column 53: model is not available")
(error "line 3134 column 53: model is not available")
(error "line 3135 column 53: model is not available")
(error "line 3136 column 53: model is not available")
(error "line 3137 column 53: model is not available")
(error "line 3138 column 38: model is not available")
(error "line 3139 column 38: model is not available")
(error "line 3140 column 38: model is not available")
(error "line 3141 column 38: model is not available")
(error "line 3142 column 38: model is not available")
(error "line 3143 column 36: model is not available")
(error "line 3144 column 36: model is not available")
(error "line 3145 column 36: model is not available")
(error "line 3146 column 36: model is not available")
(error "line 3147 column 36: model is not available")
(error "line 3148 column 29: model is not available")
(error "line 3149 column 31: model is not available")
(error "line 3150 column 38: model is not available")
(error "line 3151 column 31: model is not available")
(error "line 3152 column 38: model is not available")
(error "line 3153 column 31: model is not available")
(error "line 3154 column 38: model is not available")
(error "line 3155 column 31: model is not available")
(error "line 3156 column 38: model is not available")
(error "line 3157 column 31: model is not available")
(error "line 3158 column 38: model is not available")
(error "line 3159 column 31: model is not available")
(error "line 3160 column 38: model is not available")
(error "line 3161 column 53: model is not available")
(error "line 3162 column 52: model is not available")
(error "line 3163 column 53: model is not available")
(error "line 3164 column 53: model is not available")
(error "line 3165 column 52: model is not available")
(error "line 3166 column 53: model is not available")
(error "line 3167 column 53: model is not available")
(error "line 3168 column 53: model is not available")
(error "line 3169 column 52: model is not available")
(error "line 3170 column 53: model is not available")
(error "line 3171 column 53: model is not available")
(error "line 3172 column 53: model is not available")
(error "line 3173 column 53: model is not available")
(error "line 3174 column 52: model is not available")
(error "line 3175 column 52: model is not available")
(error "line 3176 column 51: model is not available")
(error "line 3177 column 51: model is not available")
(error "line 3178 column 51: model is not available")
(error "line 3179 column 51: model is not available")
(error "line 3180 column 51: model is not available")
(error "line 3181 column 51: model is not available")
(error "line 3182 column 50: model is not available")
(error "line 3183 column 50: model is not available")
(error "line 3184 column 50: model is not available")
(error "line 3185 column 50: model is not available")
(error "line 3186 column 50: model is not available")
(error "line 3187 column 52: model is not available")
(error "line 3188 column 51: model is not available")
(error "line 3189 column 51: model is not available")
(error "line 3190 column 51: model is not available")
(error "line 3191 column 51: model is not available")
(error "line 3192 column 51: model is not available")
(error "line 3193 column 51: model is not available")
(error "line 3194 column 50: model is not available")
(error "line 3195 column 50: model is not available")
(error "line 3196 column 50: model is not available")
(error "line 3197 column 50: model is not available")
(error "line 3198 column 50: model is not available")
(error "line 3199 column 52: model is not available")
(error "line 3200 column 51: model is not available")
(error "line 3201 column 51: model is not available")
(error "line 3202 column 51: model is not available")
(error "line 3203 column 51: model is not available")
(error "line 3204 column 51: model is not available")
(error "line 3205 column 51: model is not available")
(error "line 3206 column 51: model is not available")
(error "line 3207 column 51: model is not available")
(error "line 3208 column 51: model is not available")
(error "line 3209 column 51: model is not available")
(error "line 3210 column 51: model is not available")
(error "line 3211 column 52: model is not available")
(error "line 3212 column 51: model is not available")
(error "line 3213 column 51: model is not available")
(error "line 3214 column 51: model is not available")
(error "line 3215 column 51: model is not available")
(error "line 3216 column 51: model is not available")
(error "line 3217 column 51: model is not available")
(error "line 3218 column 51: model is not available")
(error "line 3219 column 51: model is not available")
(error "line 3220 column 51: model is not available")
(error "line 3221 column 51: model is not available")
(error "line 3222 column 51: model is not available")
(error "line 3223 column 52: model is not available")
(error "line 3224 column 51: model is not available")
(error "line 3225 column 51: model is not available")
(error "line 3226 column 51: model is not available")
(error "line 3227 column 51: model is not available")
(error "line 3228 column 51: model is not available")
(error "line 3229 column 51: model is not available")
(error "line 3230 column 51: model is not available")
(error "line 3231 column 51: model is not available")
(error "line 3232 column 51: model is not available")
(error "line 3233 column 51: model is not available")
(error "line 3234 column 51: model is not available")
(error "line 3235 column 56: model is not available")
(error "line 3236 column 56: model is not available")
(error "line 3237 column 56: model is not available")
(error "line 3238 column 56: model is not available")
(error "line 3239 column 56: model is not available")
(error "line 3240 column 55: model is not available")
(error "line 3241 column 55: model is not available")
(error "line 3242 column 55: model is not available")
(error "line 3243 column 55: model is not available")
(error "line 3244 column 55: model is not available")
(error "line 3245 column 55: model is not available")
(error "line 3246 column 55: model is not available")
(error "line 3247 column 55: model is not available")
(error "line 3248 column 55: model is not available")
(error "line 3249 column 55: model is not available")
(error "line 3250 column 55: model is not available")
(error "line 3251 column 56: model is not available")
(error "line 3252 column 56: model is not available")
(error "line 3253 column 56: model is not available")
(error "line 3254 column 55: model is not available")
(error "line 3255 column 55: model is not available")
(error "line 3256 column 55: model is not available")
(error "line 3257 column 55: model is not available")
(error "line 3258 column 56: model is not available")
(error "line 3259 column 56: model is not available")
(error "line 3260 column 56: model is not available")
(error "line 3261 column 55: model is not available")
(error "line 3262 column 55: model is not available")
(error "line 3263 column 55: model is not available")
(error "line 3264 column 56: model is not available")
(error "line 3265 column 56: model is not available")
(error "line 3266 column 55: model is not available")
(error "line 3267 column 55: model is not available")
(error "line 3268 column 56: model is not available")
(error "line 3269 column 55: model is not available")
(error "line 3270 column 36: model is not available")
(error "line 3271 column 36: model is not available")
(error "line 3272 column 36: model is not available")
(error "line 3273 column 36: model is not available")
(error "line 3274 column 36: model is not available")
(error "line 3275 column 36: model is not available")
(error "line 3276 column 46: model is not available")
(error "line 3277 column 46: model is not available")
(error "line 3278 column 46: model is not available")
(error "line 3279 column 46: model is not available")
(error "line 3280 column 46: model is not available")
(error "line 3281 column 46: model is not available")
(error "line 3282 column 46: model is not available")
(error "line 3283 column 46: model is not available")
(error "line 3284 column 46: model is not available")
(error "line 3285 column 46: model is not available")
(error "line 3286 column 54: model is not available")
(error "line 3287 column 54: model is not available")
(error "line 3288 column 54: model is not available")
(error "line 3289 column 54: model is not available")
(error "line 3290 column 54: model is not available")
(error "line 3291 column 54: model is not available")
(error "line 3292 column 54: model is not available")
(error "line 3293 column 54: model is not available")
(error "line 3294 column 54: model is not available")
(error "line 3295 column 54: model is not available")
(error "line 3296 column 54: model is not available")
(error "line 3297 column 54: model is not available")
(error "line 3298 column 54: model is not available")
(error "line 3299 column 54: model is not available")
(error "line 3300 column 54: model is not available")
(error "line 3301 column 40: model is not available")
(error "line 3302 column 40: model is not available")
(error "line 3303 column 40: model is not available")
(error "line 3304 column 40: model is not available")
(error "line 3305 column 40: model is not available")
(error "line 3306 column 40: model is not available")
(error "line 3307 column 40: model is not available")
(error "line 3308 column 40: model is not available")
(error "line 3309 column 40: model is not available")
(error "line 3310 column 40: model is not available")
(error "line 3311 column 41: model is not available")
(error "line 3312 column 41: model is not available")
(error "line 3313 column 41: model is not available")
(error "line 3314 column 41: model is not available")
(error "line 3315 column 41: model is not available")
(error "line 3316 column 41: model is not available")
(error "line 3317 column 41: model is not available")
(error "line 3318 column 41: model is not available")
(error "line 3319 column 41: model is not available")
(error "line 3320 column 41: model is not available")
(error "line 3321 column 50: model is not available")
(error "line 3322 column 50: model is not available")
(error "line 3323 column 50: model is not available")
(error "line 3324 column 50: model is not available")
(error "line 3325 column 50: model is not available")
(error "line 3326 column 50: model is not available")
(error "line 3327 column 50: model is not available")
(error "line 3328 column 50: model is not available")
(error "line 3329 column 50: model is not available")
(error "line 3330 column 50: model is not available")
(error "line 3331 column 43: model is not available")
(error "line 3332 column 43: model is not available")
(error "line 3333 column 43: model is not available")
(error "line 3334 column 43: model is not available")
(error "line 3335 column 43: model is not available")
(error "line 3336 column 43: model is not available")
(error "line 3337 column 43: model is not available")
(error "line 3338 column 43: model is not available")
(error "line 3339 column 43: model is not available")
(error "line 3340 column 43: model is not available")
(error "line 3341 column 18: model is not available")
(error "line 3342 column 25: model is not available")
(error "line 3343 column 19: model is not available")
(error "line 3344 column 26: model is not available")
(error "line 3345 column 19: model is not available")
(error "line 3346 column 26: model is not available")
(error "line 3347 column 19: model is not available")
(error "line 3348 column 26: model is not available")
(error "line 3349 column 18: model is not available")
(error "line 3350 column 25: model is not available")
(error "line 3351 column 18: model is not available")
(error "line 3352 column 25: model is not available")
(error "line 3353 column 18: model is not available")
(error "line 3354 column 25: model is not available")
(error "line 3355 column 18: model is not available")
(error "line 3356 column 25: model is not available")
(error "line 3357 column 18: model is not available")
(error "line 3358 column 25: model is not available")
(error "line 3359 column 18: model is not available")
(error "line 3360 column 25: model is not available")
(error "line 3361 column 18: model is not available")
(error "line 3362 column 25: model is not available")
(error "line 3363 column 18: model is not available")
(error "line 3364 column 25: model is not available")
(error "line 3365 column 30: model is not available")
(error "line 3366 column 30: model is not available")
(error "line 3367 column 30: model is not available")
(error "line 3368 column 30: model is not available")
(error "line 3369 column 30: model is not available")
(error "line 3370 column 36: model is not available")
(error "line 3371 column 36: model is not available")
(error "line 3372 column 36: model is not available")
(error "line 3373 column 36: model is not available")
(error "line 3374 column 36: model is not available")
(error "line 3375 column 36: model is not available")
(error "line 3376 column 36: model is not available")
(error "line 3377 column 36: model is not available")
(error "line 3378 column 36: model is not available")
(error "line 3379 column 36: model is not available")
(error "line 3380 column 31: model is not available")
(error "line 3381 column 31: model is not available")
(error "line 3382 column 31: model is not available")
(error "line 3383 column 31: model is not available")
(error "line 3384 column 31: model is not available")
(error "line 3385 column 31: model is not available")
(error "line 3386 column 31: model is not available")
(error "line 3387 column 31: model is not available")
(error "line 3388 column 31: model is not available")
(error "line 3389 column 31: model is not available")
(error "line 3390 column 31: model is not available")
(error "line 3391 column 31: model is not available")
(error "line 3392 column 31: model is not available")
(error "line 3393 column 31: model is not available")
(error "line 3394 column 31: model is not available")
(error "line 3395 column 30: model is not available")
(error "line 3396 column 30: model is not available")
(error "line 3397 column 30: model is not available")
(error "line 3398 column 30: model is not available")
(error "line 3399 column 30: model is not available")
(error "line 3401 column 10: model is not available")
(:added-eqs                      111
 :arith-bound-propagations-cheap 34
 :arith-bound-propagations-lp    126
 :arith-conflicts                4
 :arith-lower                    89
 :arith-make-feasible            34
 :arith-max-columns              196
 :arith-max-rows                 153
 :arith-propagations             34
 :arith-upper                    72
 :array-ax1                      5
 :binary-propagations            319
 :bv-bit2core                    704
 :bv-diseqs                      3
 :bv->core-eq                    3
 :conflicts                      20
 :decisions                      80
 :del-clause                     644
 :eliminated-applications        16
 :eliminated-vars                9
 :max-memory                     4.86
 :memory                         3.31
 :mk-bool-var                    1120
 :mk-clause                      926
 :num-allocs                     1895036
 :num-checks                     1
 :propagations                   514
 :rlimit-count                   117878
 :time                           0.02
 :total-time                     0.03)

real	0m0.031s
user	0m0.031s
sys	0m0.000s
State: RE Run_time: 0.0333101749420166